p cnf 72 242
-1 -2 -3 0
1 2 -3 0
-1 2 3 0
1 -2 3 0
-6 4 0
-6 -5 0
-4 5 6 0
7 3 0
7 6 0
-3 -6 -7 0
-8 -9 -10 0
8 9 -10 0
-8 9 10 0
8 -9 10 0
7 10 -11 0
-7 -10 -11 0
7 -10 11 0
-7 10 11 0
12 -5 0
12 -9 0
5 9 -12 0
13 11 0
13 -12 0
-11 12 -13 0
14 15 -16 0
-14 -15 -16 0
14 -15 16 0
-14 15 16 0
16 3 -17 0
-16 -3 -17 0
16 -3 17 0
-16 3 17 0
-18 17 0
-18 9 0
-17 -9 18 0
19 -4 0
19 -5 0
4 5 -19 0
-21 20 0
-21 2 0
-20 -2 21 0
-22 19 0
-22 21 0
-19 -21 22 0
23 -1 0
23 -22 0
1 22 -23 0
25 14 -26 0
-25 -14 -26 0
25 -14 26 0
-25 14 26 0
24 26 -27 0
-24 -26 -27 0
24 -26 27 0
-24 26 27 0
-28 -27 0
-28 -5 0
27 5 28 0
-23 28 -29 0
23 -28 -29 0
-23 -28 29 0
23 28 29 0
18 29 -30 0
-18 -29 -30 0
18 -29 30 0
-18 29 30 0
13 30 -31 0
-13 -30 -31 0
13 -30 31 0
-13 30 31 0
33 32 0
33 -21 0
-32 21 -33 0
24 -34 -35 0
-24 34 -35 0
24 34 35 0
-24 -34 35 0
19 15 -36 0
-19 -15 -36 0
19 -15 36 0
-19 15 36 0
-37 -35 0
-37 36 0
35 -36 37 0
38 -15 0
38 22 0
15 -22 -38 0
39 -38 0
39 14 0
38 -14 -39 0
37 39 -40 0
-37 -39 -40 0
37 -39 40 0
-37 39 40 0
-41 -33 0
-41 -40 0
33 40 41 0
42 -15 0
42 -32 0
15 32 -42 0
-43 42 0
-43 -34 0
-42 34 43 0
44 6 0
44 43 0
-6 -43 -44 0
-24 -27 -45 0
24 27 -45 0
-24 27 45 0
24 -27 45 0
-45 6 -46 0
45 -6 -46 0
-45 -6 46 0
45 6 46 0
-47 44 0
-47 46 0
-44 -46 47 0
-41 47 -48 0
41 -47 -48 0
-41 -47 48 0
41 47 48 0
-49 -34 0
-49 22 0
34 -22 49 0
50 -38 0
50 49 0
38 -49 -50 0
-51 -9 -52 0
51 9 -52 0
-51 9 52 0
51 -9 52 0
-52 25 -53 0
52 -25 -53 0
-52 -25 53 0
52 25 53 0
-6 -51 -54 0
6 51 -54 0
-6 51 54 0
6 -51 54 0
-55 -53 0
-55 54 0
53 -54 55 0
-50 55 -56 0
50 -55 -56 0
-50 -55 56 0
50 55 56 0
57 -51 0
57 26 0
51 -26 -57 0
58 22 0
58 14 0
-22 -14 -58 0
57 -58 -59 0
-57 58 -59 0
57 58 59 0
-57 -58 59 0
-59 -15 -60 0
59 15 -60 0
-59 15 60 0
59 -15 60 0
-51 -21 -61 0
51 21 -61 0
-51 21 61 0
51 -21 61 0
-62 60 0
-62 -61 0
-60 61 62 0
-28 17 -63 0
28 -17 -63 0
-28 -17 63 0
28 17 63 0
-64 -57 0
-64 -22 0
57 22 64 0
64 -57 -65 0
-64 57 -65 0
64 57 65 0
-64 -57 65 0
66 -63 0
66 65 0
63 -65 -66 0
-67 62 0
-67 66 0
-62 -66 67 0
68 -27 0
68 -27 0
27 -68 0
69 -67 0
69 -68 0
67 68 -69 0
-56 69 -70 0
56 -69 -70 0
-56 -69 70 0
56 69 70 0
-48 -70 -71 0
48 70 -71 0
-48 70 71 0
48 -70 71 0
72 -31 0
72 -71 0
31 71 -72 0
65 56 11 -46 0
-69 -44 0
17 -7 0
10 7 0
-13 -61 28 42 0
-10 -4 19 -11 -71 -56 0
68 20 -71 0
72 66 -46 42 28 0
-69 70 -24 5 29 0
-58 -5 0
-48 65 -49 -30 51 -16 0
47 -60 -38 30 16 12 0
34 31 0
-61 -9 -18 -29 19 34 0
-23 -71 -30 60 -50 38 0
27 3 -15 20 46 0
6 67 8 16 0
2 -52 45 0
-37 7 0
65 1 -59 63 -52 0
39 -2 47 72 0
39 -53 12 0
27 -55 0
-68 71 50 43 -21 0
37 13 -54 21 0
25 50 46 0
21 -2 -7 -23 0
-30 -28 -7 0
-25 6 45 -50 3 54 0
-68 8 0
-49 -56 7 -19 -12 0
43 -69 16 11 -60 -52 0
-71 35 24 -37 -39 0
4 -15 20 -45 0
-55 50 -44 0
-29 -53 -63 -57 0
23 66 8 0
35 64 -67 44 0
-38 -14 -30 0
-37 -66 0
72 0
